<instance format="XCSP3" type="COP">
  <variables>
    <var id="x" note="x is the number of unused bins"> 0..23 </var>
    <array id="b" note="b[i][j] indicates the weight of the jth object put in the ith bin. It is 0 if there is no object at this place." size="[23][3]"> 0 250..252 254..256 260 261 266..268 270..272 274 276 279 281 286 299 301 302 304 309 312 314 321 329 337 339 341 352 367 372 373 389 391 393 395 405 420 424 433 435 436 438 440 442 450 462 470 472 495 </array>
  </variables>
  <constraints>
    <group>
      <mdd>
        <list> %... </list>
        <transitions> (root,0,n3)(root,250,n3)(root,251,n5)(root,252,n6)(root,254,n8)(root,255,n11)(root,256,n13)(root,260,n15)(root,261,n17)(root,266,n18)(root,267,n21)(root,268,n23)(root,270,n25)(root,271,n27)(root,272,n28)(root,274,n30)(root,276,n32)(root,279,n34)(root,281,n36)(root,286,n38)(root,299,n41)(root,301,n43)(root,302,n44)(root,304,n46)(root,309,n49)(root,312,n51)(root,314,n52)(root,321,n54)(root,329,n56)(root,337,n58)(root,339,n60)(root,341,n61)(root,352,n62)(root,367,n63)(root,372,n64)(root,373,n65)(root,389,n66)(root,391,n67)(root,393,n68)(root,395,n69)(root,405,n70)(root,420,n71)(root,424,n72)(root,433,n73)(root,435,n74)(root,436,n75)(root,438,n76)(root,440,n77)(root,442,n78)(root,450,n79)(root,462,n80)(root,470,n81)(root,472,n82)(root,495,n83)(n3,0,n4)(n4,0,nodeT)(n5,0,n4)(n5,250,n4)(n6,0,n4)(n6,250,n4)(n6,251,n7)(n7,0,nodeT)(n7,250,nodeT)(n8,0,n4)(n8,250,n4)(n8,251,n7)(n8,252,n9)(n8,254,n10)(n9,0,nodeT)(n9,250,nodeT)(n9,251,nodeT)(n10,0,nodeT)(n10,250,nodeT)(n10,251,nodeT)(n10,252,nodeT)(n11,0,n4)(n11,250,n4)(n11,251,n7)(n11,252,n9)(n11,254,n12)(n11,255,n12)(n12,0,nodeT)(n12,250,nodeT)(n12,251,nodeT)(n12,252,nodeT)(n12,254,nodeT)(n13,0,n4)(n13,250,n4)(n13,251,n7)(n13,252,n9)(n13,254,n12)(n13,255,n14)(n13,256,n14)(n14,0,nodeT)(n14,250,nodeT)(n14,251,nodeT)(n14,252,nodeT)(n14,254,nodeT)(n14,255,nodeT)(n15,0,n4)(n15,250,n4)(n15,251,n7)(n15,252,n9)(n15,254,n12)(n15,255,n14)(n15,256,n16)(n16,0,nodeT)(n16,250,nodeT)(n16,251,nodeT)(n16,252,nodeT)(n16,254,nodeT)(n16,255,nodeT)(n16,256,nodeT)(n17,0,n4)(n17,250,n4)(n17,251,n7)(n17,252,n9)(n17,254,n12)(n17,255,n14)(n17,256,n16)(n17,260,n16)(n18,0,n4)(n18,250,n4)(n18,251,n7)(n18,252,n9)(n18,254,n12)(n18,255,n14)(n18,256,n16)(n18,260,n16)(n18,261,n19)(n18,266,n20)(n19,0,nodeT)(n19,250,nodeT)(n19,251,nodeT)(n19,252,nodeT)(n19,254,nodeT)(n19,255,nodeT)(n19,256,nodeT)(n19,260,nodeT)(n20,0,nodeT)(n20,250,nodeT)(n20,251,nodeT)(n20,252,nodeT)(n20,254,nodeT)(n20,255,nodeT)(n20,256,nodeT)(n20,260,nodeT)(n20,261,nodeT)(n21,0,n4)(n21,250,n4)(n21,251,n7)(n21,252,n9)(n21,254,n12)(n21,255,n14)(n21,256,n16)(n21,260,n16)(n21,261,n19)(n21,266,n22)(n22,0,nodeT)(n22,250,nodeT)(n22,251,nodeT)(n22,252,nodeT)(n22,254,nodeT)(n22,255,nodeT)(n22,256,nodeT)(n22,260,nodeT)(n22,261,nodeT)(n22,266,nodeT)(n23,0,n4)(n23,250,n4)(n23,251,n7)(n23,252,n9)(n23,254,n12)(n23,255,n14)(n23,256,n16)(n23,260,n16)(n23,261,n19)(n23,266,n22)(n23,267,n22)(n23,268,n24)(n24,0,nodeT)(n24,250,nodeT)(n24,251,nodeT)(n24,252,nodeT)(n24,254,nodeT)(n24,255,nodeT)(n24,256,nodeT)(n24,260,nodeT)(n24,261,nodeT)(n24,266,nodeT)(n24,267,nodeT)(n25,0,n4)(n25,250,n4)(n25,251,n7)(n25,252,n9)(n25,254,n12)(n25,255,n14)(n25,256,n16)(n25,260,n16)(n25,261,n19)(n25,266,n22)(n25,267,n22)(n25,268,n26)(n26,0,nodeT)(n26,250,nodeT)(n26,251,nodeT)(n26,252,nodeT)(n26,254,nodeT)(n26,255,nodeT)(n26,256,nodeT)(n26,260,nodeT)(n26,261,nodeT)(n26,266,nodeT)(n26,267,nodeT)(n26,268,nodeT)(n27,0,n4)(n27,250,n4)(n27,251,n7)(n27,252,n9)(n27,254,n12)(n27,255,n14)(n27,256,n16)(n27,260,n16)(n27,261,n19)(n27,266,n22)(n27,267,n22)(n27,268,n26)(n27,270,n26)(n28,0,n4)(n28,250,n4)(n28,251,n7)(n28,252,n9)(n28,254,n12)(n28,255,n14)(n28,256,n16)(n28,260,n16)(n28,261,n19)(n28,266,n22)(n28,267,n22)(n28,268,n26)(n28,270,n26)(n28,271,n29)(n29,0,nodeT)(n29,250,nodeT)(n29,251,nodeT)(n29,252,nodeT)(n29,254,nodeT)(n29,255,nodeT)(n29,256,nodeT)(n29,260,nodeT)(n29,261,nodeT)(n29,266,nodeT)(n29,267,nodeT)(n29,268,nodeT)(n29,270,nodeT)(n30,0,n4)(n30,250,n4)(n30,251,n7)(n30,252,n9)(n30,254,n12)(n30,255,n14)(n30,256,n16)(n30,260,n16)(n30,261,n19)(n30,266,n22)(n30,267,n22)(n30,268,n26)(n30,270,n26)(n30,271,n29)(n30,272,n31)(n31,0,nodeT)(n31,250,nodeT)(n31,251,nodeT)(n31,252,nodeT)(n31,254,nodeT)(n31,255,nodeT)(n31,256,nodeT)(n31,260,nodeT)(n31,261,nodeT)(n31,266,nodeT)(n31,267,nodeT)(n31,268,nodeT)(n31,270,nodeT)(n31,271,nodeT)(n32,0,n4)(n32,250,n4)(n32,251,n7)(n32,252,n9)(n32,254,n12)(n32,255,n14)(n32,256,n16)(n32,260,n16)(n32,261,n19)(n32,266,n22)(n32,267,n22)(n32,268,n26)(n32,270,n26)(n32,271,n29)(n32,272,n31)(n32,274,n33)(n33,0,nodeT)(n33,250,nodeT)(n33,251,nodeT)(n33,252,nodeT)(n33,254,nodeT)(n33,255,nodeT)(n33,256,nodeT)(n33,260,nodeT)(n33,261,nodeT)(n33,266,nodeT)(n33,267,nodeT)(n33,268,nodeT)(n33,270,nodeT)(n33,271,nodeT)(n33,272,nodeT)(n34,0,n4)(n34,250,n4)(n34,251,n7)(n34,252,n9)(n34,254,n12)(n34,255,n14)(n34,256,n16)(n34,260,n16)(n34,261,n19)(n34,266,n22)(n34,267,n22)(n34,268,n26)(n34,270,n26)(n34,271,n29)(n34,272,n31)(n34,274,n33)(n34,276,n35)(n35,0,nodeT)(n35,250,nodeT)(n35,251,nodeT)(n35,252,nodeT)(n35,254,nodeT)(n35,255,nodeT)(n35,256,nodeT)(n35,260,nodeT)(n35,261,nodeT)(n35,266,nodeT)(n35,267,nodeT)(n35,268,nodeT)(n35,270,nodeT)(n35,271,nodeT)(n35,272,nodeT)(n35,274,nodeT)(n36,0,n4)(n36,250,n4)(n36,251,n7)(n36,252,n9)(n36,254,n12)(n36,255,n14)(n36,256,n16)(n36,260,n16)(n36,261,n19)(n36,266,n22)(n36,267,n22)(n36,268,n26)(n36,270,n26)(n36,271,n29)(n36,272,n31)(n36,274,n33)(n36,276,n35)(n36,279,n37)(n37,0,nodeT)(n37,250,nodeT)(n37,251,nodeT)(n37,252,nodeT)(n37,254,nodeT)(n37,255,nodeT)(n37,256,nodeT)(n37,260,nodeT)(n37,261,nodeT)(n37,266,nodeT)(n37,267,nodeT)(n37,268,nodeT)(n37,270,nodeT)(n37,271,nodeT)(n37,272,nodeT)(n37,274,nodeT)(n37,276,nodeT)(n38,0,n4)(n38,250,n4)(n38,251,n7)(n38,252,n9)(n38,254,n12)(n38,255,n14)(n38,256,n16)(n38,260,n16)(n38,261,n19)(n38,266,n22)(n38,267,n22)(n38,268,n26)(n38,270,n26)(n38,271,n29)(n38,272,n31)(n38,274,n33)(n38,276,n35)(n38,279,n37)(n38,281,n39)(n38,286,n40)(n39,0,nodeT)(n39,250,nodeT)(n39,251,nodeT)(n39,252,nodeT)(n39,254,nodeT)(n39,255,nodeT)(n39,256,nodeT)(n39,260,nodeT)(n39,261,nodeT)(n39,266,nodeT)(n39,267,nodeT)(n39,268,nodeT)(n39,270,nodeT)(n39,271,nodeT)(n39,272,nodeT)(n39,274,nodeT)(n39,276,nodeT)(n39,279,nodeT)(n40,0,nodeT)(n40,250,nodeT)(n40,251,nodeT)(n40,252,nodeT)(n40,254,nodeT)(n40,255,nodeT)(n40,256,nodeT)(n40,260,nodeT)(n40,261,nodeT)(n40,266,nodeT)(n40,267,nodeT)(n40,268,nodeT)(n40,270,nodeT)(n40,271,nodeT)(n40,272,nodeT)(n40,274,nodeT)(n40,276,nodeT)(n40,279,nodeT)(n40,281,nodeT)(n41,0,n4)(n41,250,n4)(n41,251,n7)(n41,252,n9)(n41,254,n12)(n41,255,n14)(n41,256,n16)(n41,260,n16)(n41,261,n19)(n41,266,n22)(n41,267,n22)(n41,268,n26)(n41,270,n26)(n41,271,n29)(n41,272,n31)(n41,274,n33)(n41,276,n35)(n41,279,n37)(n41,281,n39)(n41,286,n42)(n42,0,nodeT)(n42,250,nodeT)(n42,251,nodeT)(n42,252,nodeT)(n42,254,nodeT)(n42,255,nodeT)(n42,256,nodeT)(n42,260,nodeT)(n42,261,nodeT)(n42,266,nodeT)(n42,267,nodeT)(n42,268,nodeT)(n42,270,nodeT)(n42,271,nodeT)(n42,272,nodeT)(n42,274,nodeT)(n42,276,nodeT)(n42,279,nodeT)(n42,281,nodeT)(n42,286,nodeT)(n43,0,n4)(n43,250,n4)(n43,251,n7)(n43,252,n9)(n43,254,n12)(n43,255,n14)(n43,256,n16)(n43,260,n16)(n43,261,n19)(n43,266,n22)(n43,267,n22)(n43,268,n26)(n43,270,n26)(n43,271,n29)(n43,272,n31)(n43,274,n33)(n43,276,n35)(n43,279,n37)(n43,281,n39)(n43,286,n42)(n43,299,n42)(n44,0,n4)(n44,250,n4)(n44,251,n7)(n44,252,n9)(n44,254,n12)(n44,255,n14)(n44,256,n16)(n44,260,n16)(n44,261,n19)(n44,266,n22)(n44,267,n22)(n44,268,n26)(n44,270,n26)(n44,271,n29)(n44,272,n31)(n44,274,n33)(n44,276,n35)(n44,279,n37)(n44,281,n39)(n44,286,n42)(n44,299,n42)(n44,301,n45)(n45,0,nodeT)(n45,250,nodeT)(n45,251,nodeT)(n45,252,nodeT)(n45,254,nodeT)(n45,255,nodeT)(n45,256,nodeT)(n45,260,nodeT)(n45,261,nodeT)(n45,266,nodeT)(n45,267,nodeT)(n45,268,nodeT)(n45,270,nodeT)(n45,271,nodeT)(n45,272,nodeT)(n45,274,nodeT)(n45,276,nodeT)(n45,279,nodeT)(n45,281,nodeT)(n45,286,nodeT)(n45,299,nodeT)(n46,0,n4)(n46,250,n4)(n46,251,n7)(n46,252,n9)(n46,254,n12)(n46,255,n14)(n46,256,n16)(n46,260,n16)(n46,261,n19)(n46,266,n22)(n46,267,n22)(n46,268,n26)(n46,270,n26)(n46,271,n29)(n46,272,n31)(n46,274,n33)(n46,276,n35)(n46,279,n37)(n46,281,n39)(n46,286,n42)(n46,299,n42)(n46,301,n45)(n46,302,n47)(n46,304,n48)(n47,0,nodeT)(n47,250,nodeT)(n47,251,nodeT)(n47,252,nodeT)(n47,254,nodeT)(n47,255,nodeT)(n47,256,nodeT)(n47,260,nodeT)(n47,261,nodeT)(n47,266,nodeT)(n47,267,nodeT)(n47,268,nodeT)(n47,270,nodeT)(n47,271,nodeT)(n47,272,nodeT)(n47,274,nodeT)(n47,276,nodeT)(n47,279,nodeT)(n47,281,nodeT)(n47,286,nodeT)(n47,299,nodeT)(n47,301,nodeT)(n48,0,nodeT)(n48,250,nodeT)(n48,251,nodeT)(n48,252,nodeT)(n48,254,nodeT)(n48,255,nodeT)(n48,256,nodeT)(n48,260,nodeT)(n48,261,nodeT)(n48,266,nodeT)(n48,267,nodeT)(n48,268,nodeT)(n48,270,nodeT)(n48,271,nodeT)(n48,272,nodeT)(n48,274,nodeT)(n48,276,nodeT)(n48,279,nodeT)(n48,281,nodeT)(n48,286,nodeT)(n48,299,nodeT)(n48,301,nodeT)(n48,302,nodeT)(n49,0,n4)(n49,250,n4)(n49,251,n7)(n49,252,n9)(n49,254,n12)(n49,255,n14)(n49,256,n16)(n49,260,n16)(n49,261,n19)(n49,266,n22)(n49,267,n22)(n49,268,n26)(n49,270,n26)(n49,271,n29)(n49,272,n31)(n49,274,n33)(n49,276,n35)(n49,279,n37)(n49,281,n39)(n49,286,n42)(n49,299,n42)(n49,301,n45)(n49,302,n47)(n49,304,n50)(n50,0,nodeT)(n50,250,nodeT)(n50,251,nodeT)(n50,252,nodeT)(n50,254,nodeT)(n50,255,nodeT)(n50,256,nodeT)(n50,260,nodeT)(n50,261,nodeT)(n50,266,nodeT)(n50,267,nodeT)(n50,268,nodeT)(n50,270,nodeT)(n50,271,nodeT)(n50,272,nodeT)(n50,274,nodeT)(n50,276,nodeT)(n50,279,nodeT)(n50,281,nodeT)(n50,286,nodeT)(n50,299,nodeT)(n50,301,nodeT)(n50,302,nodeT)(n50,304,nodeT)(n51,0,n4)(n51,250,n4)(n51,251,n7)(n51,252,n9)(n51,254,n12)(n51,255,n14)(n51,256,n16)(n51,260,n16)(n51,261,n19)(n51,266,n22)(n51,267,n22)(n51,268,n26)(n51,270,n26)(n51,271,n29)(n51,272,n31)(n51,274,n33)(n51,276,n35)(n51,279,n37)(n51,281,n39)(n51,286,n42)(n51,299,n42)(n51,301,n45)(n51,302,n47)(n51,304,n50)(n51,309,n50)(n52,0,n4)(n52,250,n4)(n52,251,n7)(n52,252,n9)(n52,254,n12)(n52,255,n14)(n52,256,n16)(n52,260,n16)(n52,261,n19)(n52,266,n22)(n52,267,n22)(n52,268,n26)(n52,270,n26)(n52,271,n29)(n52,272,n31)(n52,274,n33)(n52,276,n35)(n52,279,n37)(n52,281,n39)(n52,286,n42)(n52,299,n42)(n52,301,n45)(n52,302,n47)(n52,304,n50)(n52,309,n50)(n52,312,n53)(n53,0,nodeT)(n53,250,nodeT)(n53,251,nodeT)(n53,252,nodeT)(n53,254,nodeT)(n53,255,nodeT)(n53,256,nodeT)(n53,260,nodeT)(n53,261,nodeT)(n53,266,nodeT)(n53,267,nodeT)(n53,268,nodeT)(n53,270,nodeT)(n53,271,nodeT)(n53,272,nodeT)(n53,274,nodeT)(n53,276,nodeT)(n53,279,nodeT)(n53,281,nodeT)(n53,286,nodeT)(n53,299,nodeT)(n53,301,nodeT)(n53,302,nodeT)(n53,304,nodeT)(n53,309,nodeT)(n54,0,n4)(n54,250,n4)(n54,251,n7)(n54,252,n9)(n54,254,n12)(n54,255,n14)(n54,256,n16)(n54,260,n16)(n54,261,n19)(n54,266,n22)(n54,267,n22)(n54,268,n26)(n54,270,n26)(n54,271,n29)(n54,272,n31)(n54,274,n33)(n54,276,n35)(n54,279,n37)(n54,281,n39)(n54,286,n42)(n54,299,n42)(n54,301,n45)(n54,302,n47)(n54,304,n50)(n54,309,n50)(n54,312,n53)(n54,314,n55)(n55,0,nodeT)(n55,250,nodeT)(n55,251,nodeT)(n55,252,nodeT)(n55,254,nodeT)(n55,255,nodeT)(n55,256,nodeT)(n55,260,nodeT)(n55,261,nodeT)(n55,266,nodeT)(n55,267,nodeT)(n55,268,nodeT)(n55,270,nodeT)(n55,271,nodeT)(n55,272,nodeT)(n55,274,nodeT)(n55,276,nodeT)(n55,279,nodeT)(n55,281,nodeT)(n55,286,nodeT)(n55,299,nodeT)(n55,301,nodeT)(n55,302,nodeT)(n55,304,nodeT)(n55,309,nodeT)(n55,312,nodeT)(n56,0,n4)(n56,250,n4)(n56,251,n7)(n56,252,n9)(n56,254,n12)(n56,255,n14)(n56,256,n16)(n56,260,n16)(n56,261,n19)(n56,266,n22)(n56,267,n22)(n56,268,n26)(n56,270,n26)(n56,271,n29)(n56,272,n31)(n56,274,n33)(n56,276,n35)(n56,279,n37)(n56,281,n39)(n56,286,n42)(n56,299,n42)(n56,301,n45)(n56,302,n47)(n56,304,n50)(n56,309,n50)(n56,312,n53)(n56,314,n55)(n56,321,n57)(n57,0,nodeT)(n57,250,nodeT)(n57,251,nodeT)(n57,252,nodeT)(n57,254,nodeT)(n57,255,nodeT)(n57,256,nodeT)(n57,260,nodeT)(n57,261,nodeT)(n57,266,nodeT)(n57,267,nodeT)(n57,268,nodeT)(n57,270,nodeT)(n57,271,nodeT)(n57,272,nodeT)(n57,274,nodeT)(n57,276,nodeT)(n57,279,nodeT)(n57,281,nodeT)(n57,286,nodeT)(n57,299,nodeT)(n57,301,nodeT)(n57,302,nodeT)(n57,304,nodeT)(n57,309,nodeT)(n57,312,nodeT)(n57,314,nodeT)(n58,0,n4)(n58,250,n4)(n58,251,n7)(n58,252,n9)(n58,254,n12)(n58,255,n14)(n58,256,n16)(n58,260,n16)(n58,261,n19)(n58,266,n22)(n58,267,n22)(n58,268,n26)(n58,270,n26)(n58,271,n29)(n58,272,n31)(n58,274,n33)(n58,276,n35)(n58,279,n37)(n58,281,n39)(n58,286,n42)(n58,299,n42)(n58,301,n45)(n58,302,n47)(n58,304,n50)(n58,309,n50)(n58,312,n53)(n58,314,n55)(n58,321,n57)(n58,329,n59)(n59,0,nodeT)(n59,250,nodeT)(n59,251,nodeT)(n59,252,nodeT)(n59,254,nodeT)(n59,255,nodeT)(n59,256,nodeT)(n59,260,nodeT)(n59,261,nodeT)(n59,266,nodeT)(n59,267,nodeT)(n59,268,nodeT)(n59,270,nodeT)(n59,271,nodeT)(n59,272,nodeT)(n59,274,nodeT)(n59,276,nodeT)(n59,279,nodeT)(n59,281,nodeT)(n59,286,nodeT)(n59,299,nodeT)(n59,301,nodeT)(n59,302,nodeT)(n59,304,nodeT)(n59,309,nodeT)(n59,312,nodeT)(n59,314,nodeT)(n59,321,nodeT)(n60,0,n4)(n60,250,n4)(n60,251,n7)(n60,252,n9)(n60,254,n12)(n60,255,n14)(n60,256,n16)(n60,260,n16)(n60,261,n19)(n60,266,n22)(n60,267,n22)(n60,268,n26)(n60,270,n26)(n60,271,n29)(n60,272,n31)(n60,274,n33)(n60,276,n35)(n60,279,n37)(n60,281,n39)(n60,286,n42)(n60,299,n42)(n60,301,n45)(n60,302,n47)(n60,304,n50)(n60,309,n50)(n60,312,n53)(n60,314,n55)(n60,321,n57)(n60,329,n59)(n60,337,n59)(n61,0,n4)(n61,250,n4)(n61,251,n7)(n61,252,n9)(n61,254,n12)(n61,255,n14)(n61,256,n16)(n61,260,n16)(n61,261,n19)(n61,266,n22)(n61,267,n22)(n61,268,n26)(n61,270,n26)(n61,271,n29)(n61,272,n31)(n61,274,n33)(n61,276,n35)(n61,279,n37)(n61,281,n39)(n61,286,n42)(n61,299,n42)(n61,301,n45)(n61,302,n47)(n61,304,n50)(n61,309,n50)(n61,312,n53)(n61,314,n55)(n61,321,n57)(n61,329,n59)(n61,337,n59)(n61,339,n57)(n62,0,n4)(n62,250,n4)(n62,251,n7)(n62,252,n9)(n62,254,n12)(n62,255,n14)(n62,256,n16)(n62,260,n16)(n62,261,n19)(n62,266,n22)(n62,267,n22)(n62,268,n26)(n62,270,n26)(n62,271,n29)(n62,272,n31)(n62,274,n33)(n62,276,n35)(n62,279,n37)(n62,281,n39)(n62,286,n42)(n62,299,n42)(n62,301,n45)(n62,302,n47)(n62,304,n50)(n62,309,n50)(n62,312,n53)(n62,314,n55)(n62,321,n57)(n62,329,n57)(n62,337,n53)(n62,339,n53)(n62,341,n50)(n63,0,n4)(n63,250,n4)(n63,251,n7)(n63,252,n9)(n63,254,n12)(n63,255,n14)(n63,256,n16)(n63,260,n16)(n63,261,n19)(n63,266,n22)(n63,267,n22)(n63,268,n26)(n63,270,n26)(n63,271,n29)(n63,272,n31)(n63,274,n33)(n63,276,n35)(n63,279,n37)(n63,281,n39)(n63,286,n42)(n63,299,n42)(n63,301,n45)(n63,302,n47)(n63,304,n50)(n63,309,n50)(n63,312,n53)(n63,314,n55)(n63,321,n55)(n63,329,n50)(n63,337,n42)(n63,339,n42)(n63,341,n42)(n63,352,n40)(n64,0,n4)(n64,250,n4)(n64,251,n7)(n64,252,n9)(n64,254,n12)(n64,255,n14)(n64,256,n16)(n64,260,n16)(n64,261,n19)(n64,266,n22)(n64,267,n22)(n64,268,n26)(n64,270,n26)(n64,271,n29)(n64,272,n31)(n64,274,n33)(n64,276,n35)(n64,279,n37)(n64,281,n39)(n64,286,n42)(n64,299,n42)(n64,301,n45)(n64,302,n47)(n64,304,n50)(n64,309,n50)(n64,312,n53)(n64,314,n55)(n64,321,n50)(n64,329,n45)(n64,337,n42)(n64,339,n42)(n64,341,n42)(n64,352,n37)(n64,367,n20)(n65,0,n4)(n65,250,n4)(n65,251,n7)(n65,252,n9)(n65,254,n12)(n65,255,n14)(n65,256,n16)(n65,260,n16)(n65,261,n19)(n65,266,n22)(n65,267,n22)(n65,268,n26)(n65,270,n26)(n65,271,n29)(n65,272,n31)(n65,274,n33)(n65,276,n35)(n65,279,n37)(n65,281,n39)(n65,286,n42)(n65,299,n42)(n65,301,n45)(n65,302,n47)(n65,304,n50)(n65,309,n50)(n65,312,n53)(n65,314,n55)(n65,321,n50)(n65,329,n42)(n65,337,n42)(n65,339,n42)(n65,341,n42)(n65,352,n35)(n65,367,n19)(n65,372,n14)(n66,0,n4)(n66,250,n4)(n66,251,n7)(n66,252,n9)(n66,254,n12)(n66,255,n14)(n66,256,n16)(n66,260,n16)(n66,261,n19)(n66,266,n22)(n66,267,n22)(n66,268,n26)(n66,270,n26)(n66,271,n29)(n66,272,n31)(n66,274,n33)(n66,276,n35)(n66,279,n37)(n66,281,n39)(n66,286,n42)(n66,299,n42)(n66,301,n45)(n66,302,n47)(n66,304,n50)(n66,309,n48)(n66,312,n45)(n66,314,n42)(n66,321,n42)(n66,329,n40)(n66,337,n35)(n66,339,n33)(n66,341,n29)(n66,352,n16)(n66,367,n4)(n66,372,n4)(n66,373,n4)(n67,0,n4)(n67,250,n4)(n67,251,n7)(n67,252,n9)(n67,254,n12)(n67,255,n14)(n67,256,n16)(n67,260,n16)(n67,261,n19)(n67,266,n22)(n67,267,n22)(n67,268,n26)(n67,270,n26)(n67,271,n29)(n67,272,n31)(n67,274,n33)(n67,276,n35)(n67,279,n37)(n67,281,n39)(n67,286,n42)(n67,299,n42)(n67,301,n45)(n67,302,n47)(n67,304,n50)(n67,309,n45)(n67,312,n42)(n67,314,n42)(n67,321,n42)(n67,329,n39)(n67,337,n33)(n67,339,n29)(n67,341,n26)(n67,352,n16)(n67,367,n4)(n67,372,n4)(n67,373,n4)(n67,389,n4)(n68,0,n4)(n68,250,n4)(n68,251,n7)(n68,252,n9)(n68,254,n12)(n68,255,n14)(n68,256,n16)(n68,260,n16)(n68,261,n19)(n68,266,n22)(n68,267,n22)(n68,268,n26)(n68,270,n26)(n68,271,n29)(n68,272,n31)(n68,274,n33)(n68,276,n35)(n68,279,n37)(n68,281,n39)(n68,286,n42)(n68,299,n42)(n68,301,n45)(n68,302,n47)(n68,304,n48)(n68,309,n42)(n68,312,n42)(n68,314,n42)(n68,321,n42)(n68,329,n37)(n68,337,n29)(n68,339,n26)(n68,341,n22)(n68,352,n14)(n68,367,n4)(n68,372,n4)(n68,373,n4)(n68,389,n4)(n68,391,n4)(n69,0,n4)(n69,250,n4)(n69,251,n7)(n69,252,n9)(n69,254,n12)(n69,255,n14)(n69,256,n16)(n69,260,n16)(n69,261,n19)(n69,266,n22)(n69,267,n22)(n69,268,n26)(n69,270,n26)(n69,271,n29)(n69,272,n31)(n69,274,n33)(n69,276,n35)(n69,279,n37)(n69,281,n39)(n69,286,n42)(n69,299,n42)(n69,301,n45)(n69,302,n47)(n69,304,n47)(n69,309,n42)(n69,312,n42)(n69,314,n42)(n69,321,n40)(n69,329,n37)(n69,337,n26)(n69,339,n22)(n69,341,n20)(n69,352,n10)(n69,367,n4)(n69,372,n4)(n69,373,n4)(n69,389,n4)(n69,391,n4)(n69,393,n4)(n70,0,n4)(n70,250,n4)(n70,251,n7)(n70,252,n9)(n70,254,n12)(n70,255,n14)(n70,256,n16)(n70,260,n16)(n70,261,n19)(n70,266,n22)(n70,267,n22)(n70,268,n26)(n70,270,n26)(n70,271,n29)(n70,272,n31)(n70,274,n33)(n70,276,n35)(n70,279,n37)(n70,281,n39)(n70,286,n42)(n70,299,n42)(n70,301,n42)(n70,302,n42)(n70,304,n42)(n70,309,n42)(n70,312,n40)(n70,314,n40)(n70,321,n35)(n70,329,n22)(n70,337,n16)(n70,339,n16)(n70,341,n12)(n70,352,n4)(n70,367,n4)(n70,372,n4)(n70,373,n4)(n70,389,n4)(n70,391,n4)(n70,393,n4)(n70,395,n4)(n71,0,n4)(n71,250,n4)(n71,251,n7)(n71,252,n9)(n71,254,n12)(n71,255,n14)(n71,256,n16)(n71,260,n16)(n71,261,n19)(n71,266,n22)(n71,267,n22)(n71,268,n26)(n71,270,n26)(n71,271,n29)(n71,272,n31)(n71,274,n33)(n71,276,n35)(n71,279,n37)(n71,281,n39)(n71,286,n42)(n71,299,n40)(n71,301,n39)(n71,302,n37)(n71,304,n37)(n71,309,n31)(n71,312,n26)(n71,314,n22)(n71,321,n16)(n71,329,n9)(n71,337,n4)(n71,339,n4)(n71,341,n4)(n71,352,n4)(n71,367,n4)(n71,372,n4)(n71,373,n4)(n71,389,n4)(n71,391,n4)(n71,393,n4)(n71,395,n4)(n71,405,n4)(n72,0,n4)(n72,250,n4)(n72,251,n7)(n72,252,n9)(n72,254,n12)(n72,255,n14)(n72,256,n16)(n72,260,n16)(n72,261,n19)(n72,266,n22)(n72,267,n22)(n72,268,n26)(n72,270,n26)(n72,271,n29)(n72,272,n31)(n72,274,n33)(n72,276,n35)(n72,279,n37)(n72,281,n39)(n72,286,n42)(n72,299,n37)(n72,301,n35)(n72,302,n35)(n72,304,n33)(n72,309,n24)(n72,312,n20)(n72,314,n20)(n72,321,n14)(n72,329,n4)(n72,337,n4)(n72,339,n4)(n72,341,n4)(n72,352,n4)(n72,367,n4)(n72,372,n4)(n72,373,n4)(n72,389,n4)(n72,391,n4)(n72,393,n4)(n72,395,n4)(n72,405,n4)(n72,420,n4)(n73,0,n4)(n73,250,n4)(n73,251,n7)(n73,252,n9)(n73,254,n12)(n73,255,n14)(n73,256,n16)(n73,260,n16)(n73,261,n19)(n73,266,n22)(n73,267,n22)(n73,268,n26)(n73,270,n26)(n73,271,n29)(n73,272,n31)(n73,274,n33)(n73,276,n35)(n73,279,n37)(n73,281,n39)(n73,286,n40)(n73,299,n26)(n73,301,n22)(n73,302,n20)(n73,304,n20)(n73,309,n16)(n73,312,n14)(n73,314,n10)(n73,321,n4)(n73,329,n4)(n73,337,n4)(n73,339,n4)(n73,341,n4)(n73,352,n4)(n73,367,n4)(n73,372,n4)(n73,373,n4)(n73,389,n4)(n73,391,n4)(n73,393,n4)(n73,395,n4)(n73,405,n4)(n73,420,n4)(n73,424,n4)(n74,0,n4)(n74,250,n4)(n74,251,n7)(n74,252,n9)(n74,254,n12)(n74,255,n14)(n74,256,n16)(n74,260,n16)(n74,261,n19)(n74,266,n22)(n74,267,n22)(n74,268,n26)(n74,270,n26)(n74,271,n29)(n74,272,n31)(n74,274,n33)(n74,276,n35)(n74,279,n37)(n74,281,n39)(n74,286,n39)(n74,299,n22)(n74,301,n20)(n74,302,n20)(n74,304,n20)(n74,309,n16)(n74,312,n10)(n74,314,n9)(n74,321,n4)(n74,329,n4)(n74,337,n4)(n74,339,n4)(n74,341,n4)(n74,352,n4)(n74,367,n4)(n74,372,n4)(n74,373,n4)(n74,389,n4)(n74,391,n4)(n74,393,n4)(n74,395,n4)(n74,405,n4)(n74,420,n4)(n74,424,n4)(n74,433,n4)(n75,0,n4)(n75,250,n4)(n75,251,n7)(n75,252,n9)(n75,254,n12)(n75,255,n14)(n75,256,n16)(n75,260,n16)(n75,261,n19)(n75,266,n22)(n75,267,n22)(n75,268,n26)(n75,270,n26)(n75,271,n29)(n75,272,n31)(n75,274,n33)(n75,276,n35)(n75,279,n37)(n75,281,n39)(n75,286,n37)(n75,299,n20)(n75,301,n20)(n75,302,n20)(n75,304,n19)(n75,309,n14)(n75,312,n10)(n75,314,n7)(n75,321,n4)(n75,329,n4)(n75,337,n4)(n75,339,n4)(n75,341,n4)(n75,352,n4)(n75,367,n4)(n75,372,n4)(n75,373,n4)(n75,389,n4)(n75,391,n4)(n75,393,n4)(n75,395,n4)(n75,405,n4)(n75,420,n4)(n75,424,n4)(n75,433,n4)(n75,435,n4)(n76,0,n4)(n76,250,n4)(n76,251,n7)(n76,252,n9)(n76,254,n12)(n76,255,n14)(n76,256,n16)(n76,260,n16)(n76,261,n19)(n76,266,n22)(n76,267,n22)(n76,268,n26)(n76,270,n26)(n76,271,n29)(n76,272,n31)(n76,274,n33)(n76,276,n35)(n76,279,n37)(n76,281,n39)(n76,286,n37)(n76,299,n20)(n76,301,n20)(n76,302,n19)(n76,304,n16)(n76,309,n10)(n76,312,n7)(n76,314,n4)(n76,321,n4)(n76,329,n4)(n76,337,n4)(n76,339,n4)(n76,341,n4)(n76,352,n4)(n76,367,n4)(n76,372,n4)(n76,373,n4)(n76,389,n4)(n76,391,n4)(n76,393,n4)(n76,395,n4)(n76,405,n4)(n76,420,n4)(n76,424,n4)(n76,433,n4)(n76,435,n4)(n76,436,n4)(n77,0,n4)(n77,250,n4)(n77,251,n7)(n77,252,n9)(n77,254,n12)(n77,255,n14)(n77,256,n16)(n77,260,n16)(n77,261,n19)(n77,266,n22)(n77,267,n22)(n77,268,n26)(n77,270,n26)(n77,271,n29)(n77,272,n31)(n77,274,n33)(n77,276,n35)(n77,279,n37)(n77,281,n39)(n77,286,n35)(n77,299,n20)(n77,301,n16)(n77,302,n16)(n77,304,n16)(n77,309,n9)(n77,312,n4)(n77,314,n4)(n77,321,n4)(n77,329,n4)(n77,337,n4)(n77,339,n4)(n77,341,n4)(n77,352,n4)(n77,367,n4)(n77,372,n4)(n77,373,n4)(n77,389,n4)(n77,391,n4)(n77,393,n4)(n77,395,n4)(n77,405,n4)(n77,420,n4)(n77,424,n4)(n77,433,n4)(n77,435,n4)(n77,436,n4)(n77,438,n4)(n78,0,n4)(n78,250,n4)(n78,251,n7)(n78,252,n9)(n78,254,n12)(n78,255,n14)(n78,256,n16)(n78,260,n16)(n78,261,n19)(n78,266,n22)(n78,267,n22)(n78,268,n26)(n78,270,n26)(n78,271,n29)(n78,272,n31)(n78,274,n33)(n78,276,n35)(n78,279,n37)(n78,281,n37)(n78,286,n33)(n78,299,n16)(n78,301,n16)(n78,302,n16)(n78,304,n12)(n78,309,n4)(n78,312,n4)(n78,314,n4)(n78,321,n4)(n78,329,n4)(n78,337,n4)(n78,339,n4)(n78,341,n4)(n78,352,n4)(n78,367,n4)(n78,372,n4)(n78,373,n4)(n78,389,n4)(n78,391,n4)(n78,393,n4)(n78,395,n4)(n78,405,n4)(n78,420,n4)(n78,424,n4)(n78,433,n4)(n78,435,n4)(n78,436,n4)(n78,438,n4)(n78,440,n4)(n79,0,n4)(n79,250,n4)(n79,251,n7)(n79,252,n9)(n79,254,n12)(n79,255,n14)(n79,256,n16)(n79,260,n16)(n79,261,n19)(n79,266,n22)(n79,267,n22)(n79,268,n26)(n79,270,n26)(n79,271,n29)(n79,272,n31)(n79,274,n33)(n79,276,n35)(n79,279,n31)(n79,281,n26)(n79,286,n20)(n79,299,n9)(n79,301,n4)(n79,302,n4)(n79,304,n4)(n79,309,n4)(n79,312,n4)(n79,314,n4)(n79,321,n4)(n79,329,n4)(n79,337,n4)(n79,339,n4)(n79,341,n4)(n79,352,n4)(n79,367,n4)(n79,372,n4)(n79,373,n4)(n79,389,n4)(n79,391,n4)(n79,393,n4)(n79,395,n4)(n79,405,n4)(n79,420,n4)(n79,424,n4)(n79,433,n4)(n79,435,n4)(n79,436,n4)(n79,438,n4)(n79,440,n4)(n79,442,n4)(n80,0,n4)(n80,250,n4)(n80,251,n7)(n80,252,n9)(n80,254,n12)(n80,255,n14)(n80,256,n16)(n80,260,n16)(n80,261,n19)(n80,266,n22)(n80,267,n22)(n80,268,n26)(n80,270,n26)(n80,271,n24)(n80,272,n22)(n80,274,n20)(n80,276,n20)(n80,279,n16)(n80,281,n16)(n80,286,n10)(n80,299,n4)(n80,301,n4)(n80,302,n4)(n80,304,n4)(n80,309,n4)(n80,312,n4)(n80,314,n4)(n80,321,n4)(n80,329,n4)(n80,337,n4)(n80,339,n4)(n80,341,n4)(n80,352,n4)(n80,367,n4)(n80,372,n4)(n80,373,n4)(n80,389,n4)(n80,391,n4)(n80,393,n4)(n80,395,n4)(n80,405,n4)(n80,420,n4)(n80,424,n4)(n80,433,n4)(n80,435,n4)(n80,436,n4)(n80,438,n4)(n80,440,n4)(n80,442,n4)(n80,450,n4)(n81,0,n4)(n81,250,n4)(n81,251,n7)(n81,252,n9)(n81,254,n12)(n81,255,n14)(n81,256,n16)(n81,260,n16)(n81,261,n19)(n81,266,n20)(n81,267,n20)(n81,268,n20)(n81,270,n19)(n81,271,n16)(n81,272,n16)(n81,274,n16)(n81,276,n12)(n81,279,n9)(n81,281,n4)(n81,286,n4)(n81,299,n4)(n81,301,n4)(n81,302,n4)(n81,304,n4)(n81,309,n4)(n81,312,n4)(n81,314,n4)(n81,321,n4)(n81,329,n4)(n81,337,n4)(n81,339,n4)(n81,341,n4)(n81,352,n4)(n81,367,n4)(n81,372,n4)(n81,373,n4)(n81,389,n4)(n81,391,n4)(n81,393,n4)(n81,395,n4)(n81,405,n4)(n81,420,n4)(n81,424,n4)(n81,433,n4)(n81,435,n4)(n81,436,n4)(n81,438,n4)(n81,440,n4)(n81,442,n4)(n81,450,n4)(n81,462,n4)(n82,0,n4)(n82,250,n4)(n82,251,n7)(n82,252,n9)(n82,254,n12)(n82,255,n14)(n82,256,n16)(n82,260,n16)(n82,261,n19)(n82,266,n20)(n82,267,n20)(n82,268,n19)(n82,270,n16)(n82,271,n16)(n82,272,n16)(n82,274,n12)(n82,276,n10)(n82,279,n4)(n82,281,n4)(n82,286,n4)(n82,299,n4)(n82,301,n4)(n82,302,n4)(n82,304,n4)(n82,309,n4)(n82,312,n4)(n82,314,n4)(n82,321,n4)(n82,329,n4)(n82,337,n4)(n82,339,n4)(n82,341,n4)(n82,352,n4)(n82,367,n4)(n82,372,n4)(n82,373,n4)(n82,389,n4)(n82,391,n4)(n82,393,n4)(n82,395,n4)(n82,405,n4)(n82,420,n4)(n82,424,n4)(n82,433,n4)(n82,435,n4)(n82,436,n4)(n82,438,n4)(n82,440,n4)(n82,442,n4)(n82,450,n4)(n82,462,n4)(n82,470,n4)(n83,0,n4)(n83,250,n4)(n83,251,n7)(n83,252,n9)(n83,254,n9)(n83,255,n7)(n83,256,n4)(n83,260,n4)(n83,261,n4)(n83,266,n4)(n83,267,n4)(n83,268,n4)(n83,270,n4)(n83,271,n4)(n83,272,n4)(n83,274,n4)(n83,276,n4)(n83,279,n4)(n83,281,n4)(n83,286,n4)(n83,299,n4)(n83,301,n4)(n83,302,n4)(n83,304,n4)(n83,309,n4)(n83,312,n4)(n83,314,n4)(n83,321,n4)(n83,329,n4)(n83,337,n4)(n83,339,n4)(n83,341,n4)(n83,352,n4)(n83,367,n4)(n83,372,n4)(n83,373,n4)(n83,389,n4)(n83,391,n4)(n83,393,n4)(n83,395,n4)(n83,405,n4)(n83,420,n4)(n83,424,n4)(n83,433,n4)(n83,435,n4)(n83,436,n4)(n83,438,n4)(n83,440,n4)(n83,442,n4)(n83,450,n4)(n83,462,n4)(n83,470,n4)(n83,472,n4) </transitions>
      </mdd>
      <args> b[0][] </args>
      <args> b[1][] </args>
      <args> b[2][] </args>
      <args> b[3][] </args>
      <args> b[4][] </args>
      <args> b[5][] </args>
      <args> b[6][] </args>
      <args> b[7][] </args>
      <args> b[8][] </args>
      <args> b[9][] </args>
      <args> b[10][] </args>
      <args> b[11][] </args>
      <args> b[12][] </args>
      <args> b[13][] </args>
      <args> b[14][] </args>
      <args> b[15][] </args>
      <args> b[16][] </args>
      <args> b[17][] </args>
      <args> b[18][] </args>
      <args> b[19][] </args>
      <args> b[20][] </args>
      <args> b[21][] </args>
      <args> b[22][] </args>
    </group>
    <cardinality>
      <list> b[][] </list>
      <values> 0 250 251 252 254 255 256 260 261 266 267 268 270 271 272 274 276 279 281 286 299 301 302 304 309 312 314 321 329 337 339 341 352 367 372 373 389 391 393 395 405 420 424 433 435 436 438 440 442 450 462 470 472 495 </values>
      <occurs> 9 1 1 1 2 2 2 1 1 2 1 2 1 1 1 1 1 1 1 2 1 1 1 2 1 1 1 1 1 1 1 1 1 1 1 1 1 1 1 1 1 1 1 1 1 1 1 1 1 1 1 1 1 1 </occurs>
    </cardinality>
    <lex class="symmetryBreaking">
      <list> b[0][] </list>
      <list> b[1][] </list>
      <list> b[2][] </list>
      <list> b[3][] </list>
      <list> b[4][] </list>
      <list> b[5][] </list>
      <list> b[6][] </list>
      <list> b[7][] </list>
      <list> b[8][] </list>
      <list> b[9][] </list>
      <list> b[10][] </list>
      <list> b[11][] </list>
      <list> b[12][] </list>
      <list> b[13][] </list>
      <list> b[14][] </list>
      <list> b[15][] </list>
      <list> b[16][] </list>
      <list> b[17][] </list>
      <list> b[18][] </list>
      <list> b[19][] </list>
      <list> b[20][] </list>
      <list> b[21][] </list>
      <list> b[22][] </list>
      <operator> ge </operator>
    </lex>
    <count>
      <list> b[][0] </list>
      <values> 0 </values>
      <condition> (eq,x) </condition>
    </count>
  </constraints>
  <objectives>
    <maximize> x </maximize>
  </objectives>
</instance>
